
Gurobi 9.0.2 (win64) logging started Sun Dec 27 05:46:56 2020

Changed value of parameter logfile to result\SunCable-20201227T0415\scenario_2030_m10_cab5000.log
   Prev:   Default: 
Gurobi Optimizer version 9.0.2 build v9.0.2rc0 (win64)
Optimize a model with 1243974 rows, 762167 columns and 3491691 nonzeros
Model fingerprint: 0x12a5e105
Coefficient statistics:
  Matrix range     [1e-07, 5e+05]
  Objective range  [1e+00, 1e+00]
  Bounds range     [0e+00, 0e+00]
  RHS range        [2e-05, 3e+08]
Warning: Model contains large matrix coefficient range
         Consider reformulating model or setting NumericFocus parameter
         to avoid numerical issues.

Concurrent LP optimizer: primal simplex, dual simplex, and barrier
Showing barrier log only...

Presolve removed 1068997 rows and 595935 columns
Presolve time: 2.70s
Presolved: 174977 rows, 280098 columns, 652320 nonzeros

Ordering time: 0.08s

Barrier statistics:
 Dense cols : 5
 AA' NZ     : 6.422e+05
 Factor NZ  : 3.150e+06 (roughly 200 MBytes of memory)
 Factor Ops : 7.040e+07 (less than 1 second per iteration)
 Threads    : 30

                  Objective                Residual
Iter       Primal          Dual         Primal    Dual     Compl     Time
   0  -2.63269491e+16 -1.07293719e+15  7.68e+06 2.51e+04  3.16e+12     3s
   1  -5.54965915e+15 -1.08626828e+15  1.61e+06 4.57e+06  8.74e+11     3s
   2  -1.81288357e+15 -1.02574096e+15  5.29e+05 8.03e+05  2.51e+11     4s
   3  -3.45907782e+14 -9.00131954e+14  1.02e+05 1.27e+05  4.92e+10     4s
   4  -7.84230595e+13 -5.61649710e+14  2.23e+04 3.49e+04  1.19e+10     4s
   5  -2.45225255e+13 -3.72008718e+14  7.14e+03 1.68e+04  4.50e+09     5s
   6  -7.20664877e+12 -2.90795065e+14  2.31e+03 1.07e+04  2.13e+09     5s
   7  -2.43589681e+12 -1.09018379e+14  9.25e+02 1.06e+03  5.01e+08     5s
   8   5.73373677e+11 -2.89748892e+13  2.29e+01 5.85e+01  5.96e+07     5s
   9   3.63716903e+11 -1.61979818e+12  3.30e+00 1.62e+00  3.80e+06     6s
  10   1.24751243e+11 -6.46346933e+11  6.79e-01 2.19e-01  1.41e+06     6s
  11   3.83600231e+10 -1.70875110e+11  1.31e-01 5.59e-09  3.75e+05     6s
  12   2.10966061e+10 -6.85707955e+10  5.87e-02 5.59e-09  1.60e+05     7s
  13   1.60719486e+10 -4.03610833e+10  3.21e-02 5.59e-09  1.00e+05     7s
  14   1.11825715e+10 -1.04671886e+10  1.21e-02 5.59e-09  3.84e+04     7s
  15   9.47143331e+09 -3.79552933e+09  4.84e-03 5.59e-09  2.35e+04     7s
  16   8.85066247e+09  7.06913733e+08  2.19e-03 5.59e-09  1.44e+04     8s
  17   8.50002964e+09  3.58696859e+09  9.75e-04 3.73e-09  8.66e+03     8s
  18   8.32844554e+09  6.14905080e+09  4.49e-04 3.73e-09  3.84e+03     8s
  19   8.27891913e+09  6.56899233e+09  3.13e-04 2.79e-09  3.01e+03     8s
  20   8.23184641e+09  6.97729055e+09  1.81e-04 2.79e-09  2.21e+03     9s
  21   8.19641255e+09  7.47382634e+09  9.97e-05 1.86e-09  1.27e+03     9s
  22   8.18667873e+09  7.56390570e+09  7.93e-05 1.86e-09  1.10e+03     9s
  23   8.17801693e+09  7.65613475e+09  6.05e-05 1.86e-09  9.19e+02     9s
  24   8.17236420e+09  7.71587683e+09  4.78e-05 2.79e-09  8.03e+02    10s
  25   8.16300368e+09  7.77656214e+09  2.77e-05 2.79e-09  6.80e+02    10s
  26   8.15278508e+09  7.94615990e+09  9.90e-06 1.86e-09  3.63e+02    10s
  27   8.14738335e+09  8.05588791e+09  2.46e-06 2.79e-09  1.61e+02    11s
  28   8.14618097e+09  8.11833999e+09  1.27e-06 1.86e-09  4.90e+01    11s
  29   8.14553351e+09  8.12385358e+09  7.78e-07 2.79e-09  3.81e+01    11s
  30   8.14484953e+09  8.13227679e+09  2.63e-07 1.86e-09  2.21e+01    11s
  31   8.14457060e+09  8.13935197e+09  1.32e-07 1.86e-09  9.18e+00    12s
  32   8.14441973e+09  8.14245644e+09  2.95e-07 1.86e-09  3.45e+00    12s
  33   8.14438436e+09  8.14338254e+09  1.43e-07 1.86e-09  1.76e+00    12s
  34   8.14436110e+09  8.14376437e+09  8.98e-08 1.86e-09  1.05e+00    12s
  35   8.14435421e+09  8.14402397e+09  2.77e-08 1.86e-09  5.81e-01    13s
  36   8.14435219e+09  8.14433315e+09  1.27e-07 4.44e-09  3.35e-02    13s
  37   8.14434903e+09  8.14434772e+09  1.42e-08 3.73e-09  2.31e-03    13s
  38   8.14434903e+09  8.14434772e+09  2.46e-04 3.73e-09  2.31e-03    14s

Barrier solved model in 38 iterations and 13.52 seconds
Optimal objective 8.14434903e+09

Crossover log...

   11005 DPushes remaining with DInf 0.0000000e+00                14s
    4462 DPushes remaining with DInf 0.0000000e+00                15s
       0 DPushes remaining with DInf 0.0000000e+00                20s
Warning: Markowitz tolerance tightened to 0.25

  135640 PPushes remaining with PInf 1.9003987e-04                20s
   61271 PPushes remaining with PInf 7.0387942e+00                43s
   23421 PPushes remaining with PInf 7.0314618e+00                46s
   12651 PPushes remaining with PInf 2.1815993e+00                53s
    9653 PPushes remaining with PInf 4.2735915e-02                57s
       0 PPushes remaining with PInf 0.0000000e+00                59s

  Push phase complete: Pinf 0.0000000e+00, Dinf 1.8925574e+04     59s

Iteration    Objective       Primal Inf.    Dual Inf.      Time
  146647    8.1443585e+09   0.000000e+00   1.892557e+04     59s
  146731    8.1443486e+09   0.000000e+00   2.000000e-06     61s
Extra one simplex iteration after uncrush
  146732    8.1443486e+09   0.000000e+00   0.000000e+00     61s

Solved with barrier
Solved in 146732 iterations and 61.33 seconds
Optimal objective  8.144348623e+09
Warning: unscaled primal violation = 0.000872315 and residual = 0.000872315
